Route #1:
Route #2: 15 29 21 13 6 18 10 1
Route #3: 5
Route #4: 20 24 11 9 7 26 31 16
Route #5: 27 22 8
Route #6: 14 30
Route #7: 4 28 17
Route #8: 12
Route #9: 3 25
Route #10: 2 23 19

Cost: 2058.8845078043173
